(set-logic HORN)

(declare-fun |main@_94| ( Int Int Int Int Int Int Int Int Int Int ) Bool)
(declare-fun |main@verifier.error.split| ( ) Bool)
(declare-fun |main@_60| ( Int Int Int Int Int Int Int Int Int Int ) Bool)
(declare-fun |main@verifier.error| ( ) Bool)
(declare-fun |main@_80| ( Int Int Int Int Int Int Int Int Int Int ) Bool)
(declare-fun |main@_50| ( Int Int Int Int Int Int Int Int Int Int ) Bool)
(declare-fun |main@_16| ( Int Int Int Int Int Int Int Int Int Int ) Bool)
(declare-fun |main@_46| ( Int Int Int Int Int Int Int Int Int Int ) Bool)
(declare-fun |main@_42| ( Int Int Int Int Int Int Int Int Int Int ) Bool)
(declare-fun |main@_65| ( Int Int Int Int Int Int Int Int Int Int ) Bool)
(declare-fun |main@._crit_edge| ( Int Int Int Int Int Int Int ) Bool)
(declare-fun |main@_91| ( Int Int Int Int Int Int Int Int Int Int ) Bool)
(declare-fun |main@_21| ( Int Int Int Int Int Int Int Int Int Int ) Bool)
(declare-fun |main@_98| ( Int Int Int Int Int Int Int Int Int Int ) Bool)
(declare-fun |main@_84| ( Int Int Int Int Int Int Int Int Int Int ) Bool)
(declare-fun |main@_38| ( Int Int Int Int Int Int Int Int Int Int ) Bool)
(declare-fun |main@_113| ( Int ) Bool)
(declare-fun |main@_12| ( Int Int Int Int Int Int Int Int Int Int ) Bool)
(declare-fun |main@_69| ( Int Int Int Int Int Int Int Int Int Int ) Bool)
(declare-fun |main@_87| ( Int Int Int Int Int Int Int Int Int Int ) Bool)
(declare-fun |main@.lr.ph| ( Int Int Int Int Int Int Int Int Int Int ) Bool)
(declare-fun |main@_29| ( Int Int Int Int Int Int Int Int Int Int ) Bool)
(declare-fun |main@_56| ( Int Int Int Int Int Int Int Int Int Int ) Bool)
(declare-fun |main@_72| ( Int Int Int Int Int Int Int Int Int Int ) Bool)
(declare-fun |main@_25| ( Int Int Int Int Int Int Int Int Int Int ) Bool)
(declare-fun |main@_33| ( Int Int Int Int Int Int Int Int Int Int ) Bool)
(declare-fun |main@entry| ( Int ) Bool)
(declare-fun |main@_7| ( Int Int Int Int Int Int Int Int Int Int ) Bool)
(declare-fun |main@_76| ( Int Int Int Int Int Int Int Int Int Int ) Bool)

(assert
  (forall ( (A Int) ) 
    (=>
      (and
        true
      )
      (main@entry A)
    )
  )
)
(assert
  (forall ( (A Int) (B Bool) (C Int) (D Int) (E Int) (F Bool) (G Int) (H Int) (I Int) (J Int) (K Int) (L Int) (M Int) ) 
    (=>
      (and
        (main@entry D)
        (and (= F (= E 0))
     (= C D)
     (= G 0)
     (= H 0)
     (= I 0)
     (= J 0)
     (= K 0)
     (= L 0)
     (= M 0)
     (= B true)
     (= F true)
     (= B (= A 0)))
      )
      (main@._crit_edge G H I J K L M)
    )
  )
)
(assert
  (forall ( (A Bool) (B Int) (C Int) (D Bool) (E Int) (F Int) (G Int) (H Int) (I Int) (J Int) (K Int) (L Int) (M Int) (N Int) ) 
    (=>
      (and
        (main@entry E)
        (and (= D (= C 0))
     (= G 0)
     (= B E)
     (= H 0)
     (= I 0)
     (= J 0)
     (= K 0)
     (= L 0)
     (= M 0)
     (= N 0)
     (= A true)
     (not D)
     (= A (= F 0)))
      )
      (main@.lr.ph E F G H I J K L M N)
    )
  )
)
(assert
  (forall ( (A Int) (B Int) (C Bool) (D Int) (E Int) (F Int) (G Int) (H Int) (I Int) (J Int) (K Int) (L Int) (M Int) ) 
    (=>
      (and
        (main@.lr.ph D E F G H I J K L M)
        (and (= A D) (= C true) (= C (= B 0)))
      )
      (main@_12 D E F G H I J K L M)
    )
  )
)
(assert
  (forall ( (A Int) (B Int) (C Bool) (D Int) (E Int) (F Int) (G Int) (H Int) (I Int) (J Int) (K Int) (L Int) (M Int) ) 
    (=>
      (and
        (main@.lr.ph D E F G H I J K L M)
        (and (= A D) (not C) (= C (= B 0)))
      )
      (main@_7 D E F G H I J K L M)
    )
  )
)
(assert
  (forall ( (A Int) (B Bool) (C Bool) (D Bool) (E Int) (F Int) (G Int) (H Int) (I Int) (J Int) (K Int) (L Int) (M Int) (N Int) (O Int) (P Int) (Q Int) (R Int) (S Int) (T Int) (U Int) (V Int) (W Int) ) 
    (=>
      (and
        (main@_7 N O E F K A J I H G)
        (and (= C (not (<= E 0)))
     (= D (and C B))
     (= L (+ 1 F))
     (= P G)
     (= M (+ (- 1) E))
     (= Q H)
     (= R I)
     (= S J)
     (= T 1)
     (= U K)
     (= V L)
     (= W M)
     (= D true)
     (= B (= A 0)))
      )
      (main@_98 N O P Q R S T U V W)
    )
  )
)
(assert
  (forall ( (A Int) (B Int) (C Bool) (D Int) (E Int) (F Int) (G Int) (H Int) (I Int) (J Int) (K Int) (L Int) (M Int) ) 
    (=>
      (and
        (main@_12 D E F G H I J K L M)
        (and (= A D) (= C true) (= C (= B 0)))
      )
      (main@_21 D E F G H I J K L M)
    )
  )
)
(assert
  (forall ( (A Int) (B Int) (C Bool) (D Int) (E Int) (F Int) (G Int) (H Int) (I Int) (J Int) (K Int) (L Int) (M Int) ) 
    (=>
      (and
        (main@_12 D E F G H I J K L M)
        (and (= A D) (not C) (= C (= B 0)))
      )
      (main@_16 D E F G H I J K L M)
    )
  )
)
(assert
  (forall ( (A Int) (B Bool) (C Bool) (D Bool) (E Int) (F Int) (G Int) (H Int) (I Int) (J Int) (K Int) (L Int) (M Int) (N Int) (O Int) (P Int) (Q Int) (R Int) (S Int) (T Int) (U Int) (V Int) (W Int) ) 
    (=>
      (and
        (main@_16 N O E F K J A I H G)
        (and (= C (not (<= E 0)))
     (= D (and C B))
     (= L (+ 1 F))
     (= P G)
     (= M (+ (- 1) E))
     (= Q H)
     (= R I)
     (= S 1)
     (= T J)
     (= U K)
     (= V L)
     (= W M)
     (= D true)
     (= B (= A 0)))
      )
      (main@_98 N O P Q R S T U V W)
    )
  )
)
(assert
  (forall ( (A Int) (B Int) (C Bool) (D Int) (E Int) (F Int) (G Int) (H Int) (I Int) (J Int) (K Int) (L Int) (M Int) ) 
    (=>
      (and
        (main@_21 D E F G H I J K L M)
        (and (= A D) (= C true) (= C (= B 0)))
      )
      (main@_29 D E F G H I J K L M)
    )
  )
)
(assert
  (forall ( (A Int) (B Int) (C Bool) (D Int) (E Int) (F Int) (G Int) (H Int) (I Int) (J Int) (K Int) (L Int) (M Int) ) 
    (=>
      (and
        (main@_21 D E F G H I J K L M)
        (and (= A D) (not C) (= C (= B 0)))
      )
      (main@_25 D E F G H I J K L M)
    )
  )
)
(assert
  (forall ( (A Int) (B Bool) (C Bool) (D Bool) (E Int) (F Int) (G Int) (H Int) (I Int) (J Int) (K Int) (L Int) (M Int) (N Int) (O Int) (P Int) (Q Int) (R Int) (S Int) (T Int) (U Int) (V Int) ) 
    (=>
      (and
        (main@_25 M N L K E I A H G F)
        (and (= B (= A 1))
     (= C (not (<= E 0)))
     (= O F)
     (= J (+ (- 1) E))
     (= P G)
     (= Q H)
     (= R 0)
     (= S I)
     (= T J)
     (= U K)
     (= V L)
     (= D true)
     (= D (and C B)))
      )
      (main@_98 M N O P Q R S T U V)
    )
  )
)
(assert
  (forall ( (A Int) (B Int) (C Bool) (D Int) (E Int) (F Int) (G Int) (H Int) (I Int) (J Int) (K Int) (L Int) (M Int) ) 
    (=>
      (and
        (main@_29 D E F G H I J K L M)
        (and (= A D) (= C true) (= C (= B 0)))
      )
      (main@_38 D E F G H I J K L M)
    )
  )
)
(assert
  (forall ( (A Int) (B Int) (C Bool) (D Int) (E Int) (F Int) (G Int) (H Int) (I Int) (J Int) (K Int) (L Int) (M Int) ) 
    (=>
      (and
        (main@_29 D E F G H I J K L M)
        (and (= A D) (not C) (= C (= B 0)))
      )
      (main@_33 D E F G H I J K L M)
    )
  )
)
(assert
  (forall ( (A Int) (B Bool) (C Bool) (D Bool) (E Int) (F Int) (G Int) (H Int) (I Int) (J Int) (K Int) (L Int) (M Int) (N Int) (O Int) (P Int) (Q Int) (R Int) (S Int) (T Int) (U Int) (V Int) (W Int) ) 
    (=>
      (and
        (main@_33 N O E F K J I A H G)
        (and (= C (not (<= E 0)))
     (= D (and C B))
     (= L (+ 1 F))
     (= P G)
     (= M (+ (- 1) E))
     (= Q H)
     (= R 1)
     (= S I)
     (= T J)
     (= U K)
     (= V L)
     (= W M)
     (= D true)
     (= B (= A 0)))
      )
      (main@_98 N O P Q R S T U V W)
    )
  )
)
(assert
  (forall ( (A Int) (B Int) (C Bool) (D Int) (E Int) (F Int) (G Int) (H Int) (I Int) (J Int) (K Int) (L Int) (M Int) ) 
    (=>
      (and
        (main@_38 D E F G H I J K L M)
        (and (= A D) (= C true) (= C (= B 0)))
      )
      (main@_46 D E F G H I J K L M)
    )
  )
)
(assert
  (forall ( (A Int) (B Int) (C Bool) (D Int) (E Int) (F Int) (G Int) (H Int) (I Int) (J Int) (K Int) (L Int) (M Int) ) 
    (=>
      (and
        (main@_38 D E F G H I J K L M)
        (and (= A D) (not C) (= C (= B 0)))
      )
      (main@_42 D E F G H I J K L M)
    )
  )
)
(assert
  (forall ( (A Int) (B Bool) (C Bool) (D Bool) (E Int) (F Int) (G Int) (H Int) (I Int) (J Int) (K Int) (L Int) (M Int) (N Int) (O Int) (P Int) (Q Int) (R Int) (S Int) (T Int) (U Int) (V Int) ) 
    (=>
      (and
        (main@_42 M N L K E I H A G F)
        (and (= B (= A 1))
     (= C (not (<= E 0)))
     (= O F)
     (= J (+ (- 1) E))
     (= P G)
     (= Q 0)
     (= R H)
     (= S I)
     (= T J)
     (= U K)
     (= V L)
     (= D true)
     (= D (and C B)))
      )
      (main@_98 M N O P Q R S T U V)
    )
  )
)
(assert
  (forall ( (A Int) (B Int) (C Bool) (D Int) (E Int) (F Int) (G Int) (H Int) (I Int) (J Int) (K Int) (L Int) (M Int) ) 
    (=>
      (and
        (main@_46 D E F G H I J K L M)
        (and (= A D) (= C true) (= C (= B 0)))
      )
      (main@_56 D E F G H I J K L M)
    )
  )
)
(assert
  (forall ( (A Int) (B Int) (C Bool) (D Int) (E Int) (F Int) (G Int) (H Int) (I Int) (J Int) (K Int) (L Int) (M Int) ) 
    (=>
      (and
        (main@_46 D E F G H I J K L M)
        (and (= A D) (not C) (= C (= B 0)))
      )
      (main@_50 D E F G H I J K L M)
    )
  )
)
(assert
  (forall ( (A Bool) (B Bool) (C Bool) (D Int) (E Int) (F Int) (G Int) (H Int) (I Int) (J Int) (K Int) (L Int) (M Int) (N Int) (O Int) (P Int) (Q Int) (R Int) (S Int) (T Int) (U Int) (V Int) (W Int) (X Int) ) 
    (=>
      (and
        (main@_50 O P D E L K J I F G)
        (and (= B (not (<= D 0)))
     (= C (and B A))
     (= H (+ 1 F))
     (= M (+ 1 E))
     (= Q G)
     (= N (+ (- 1) D))
     (= R H)
     (= S I)
     (= T J)
     (= U K)
     (= V L)
     (= W M)
     (= X N)
     (= C true)
     (= A (= F 0)))
      )
      (main@_98 O P Q R S T U V W X)
    )
  )
)
(assert
  (forall ( (A Int) (B Int) (C Bool) (D Int) (E Int) (F Int) (G Int) (H Int) (I Int) (J Int) (K Int) (L Int) (M Int) ) 
    (=>
      (and
        (main@_56 D E F G H I J K L M)
        (and (= A D) (= C true) (= C (= B 0)))
      )
      (main@_65 D E F G H I J K L M)
    )
  )
)
(assert
  (forall ( (A Int) (B Int) (C Bool) (D Int) (E Int) (F Int) (G Int) (H Int) (I Int) (J Int) (K Int) (L Int) (M Int) ) 
    (=>
      (and
        (main@_56 D E F G H I J K L M)
        (and (= A D) (not C) (= C (= B 0)))
      )
      (main@_60 D E F G H I J K L M)
    )
  )
)
(assert
  (forall ( (A Bool) (B Bool) (C Bool) (D Int) (E Int) (F Int) (G Int) (H Int) (I Int) (J Int) (K Int) (L Int) (M Int) (N Int) (O Int) (P Int) (Q Int) (R Int) (S Int) (T Int) (U Int) (V Int) (W Int) ) 
    (=>
      (and
        (main@_60 N O M L D J I H E F)
        (and (= B (not (<= D 0)))
     (= C (and B A))
     (= G (+ (- 1) E))
     (= P F)
     (= K (+ (- 1) D))
     (= Q G)
     (= R H)
     (= S I)
     (= T J)
     (= U K)
     (= V L)
     (= W M)
     (= C true)
     (= A (= E 1)))
      )
      (main@_98 N O P Q R S T U V W)
    )
  )
)
(assert
  (forall ( (A Int) (B Int) (C Bool) (D Int) (E Int) (F Int) (G Int) (H Int) (I Int) (J Int) (K Int) (L Int) (M Int) ) 
    (=>
      (and
        (main@_65 D E F G H I J K L M)
        (and (= A D) (= C true) (= C (= B 0)))
      )
      (main@_72 D E F G H I J K L M)
    )
  )
)
(assert
  (forall ( (A Int) (B Int) (C Bool) (D Int) (E Int) (F Int) (G Int) (H Int) (I Int) (J Int) (K Int) (L Int) (M Int) ) 
    (=>
      (and
        (main@_65 D E F G H I J K L M)
        (and (= A D) (not C) (= C (= B 0)))
      )
      (main@_69 D E F G H I J K L M)
    )
  )
)
(assert
  (forall ( (A Int) (B Bool) (C Int) (D Int) (E Int) (F Int) (G Int) (H Int) (I Int) (J Int) (K Int) (L Int) (M Int) (N Int) (O Int) (P Int) (Q Int) (R Int) (S Int) (T Int) ) 
    (=>
      (and
        (main@_69 K L C I H G F E D A)
        (and (= M 1)
     (= J (+ 1 C))
     (= N D)
     (= O E)
     (= P F)
     (= Q G)
     (= R H)
     (= S I)
     (= T J)
     (= B true)
     (= B (= A 0)))
      )
      (main@_98 K L M N O P Q R S T)
    )
  )
)
(assert
  (forall ( (A Int) (B Int) (C Bool) (D Int) (E Int) (F Int) (G Int) (H Int) (I Int) (J Int) (K Int) (L Int) (M Int) ) 
    (=>
      (and
        (main@_72 D E F G H I J K L M)
        (and (= A D) (= C true) (= C (= B 0)))
      )
      (main@_80 D E F G H I J K L M)
    )
  )
)
(assert
  (forall ( (A Int) (B Int) (C Bool) (D Int) (E Int) (F Int) (G Int) (H Int) (I Int) (J Int) (K Int) (L Int) (M Int) ) 
    (=>
      (and
        (main@_72 D E F G H I J K L M)
        (and (= A D) (not C) (= C (= B 0)))
      )
      (main@_76 D E F G H I J K L M)
    )
  )
)
(assert
  (forall ( (A Int) (B Bool) (C Bool) (D Bool) (E Int) (F Int) (G Int) (H Int) (I Int) (J Int) (K Int) (L Int) (M Int) (N Int) (O Int) (P Int) (Q Int) (R Int) (S Int) (T Int) (U Int) (V Int) ) 
    (=>
      (and
        (main@_76 M N L E J I H G F A)
        (and (= B (= A 1))
     (= C (not (<= E 0)))
     (= K (+ (- 1) E))
     (= O 2)
     (= P F)
     (= Q G)
     (= R H)
     (= S I)
     (= T J)
     (= U K)
     (= V L)
     (= D true)
     (= D (and C B)))
      )
      (main@_98 M N O P Q R S T U V)
    )
  )
)
(assert
  (forall ( (A Int) (B Int) (C Bool) (D Int) (E Int) (F Int) (G Int) (H Int) (I Int) (J Int) (K Int) (L Int) (M Int) ) 
    (=>
      (and
        (main@_80 D E F G H I J K L M)
        (and (= A D) (= C true) (= C (= B 0)))
      )
      (main@_87 D E F G H I J K L M)
    )
  )
)
(assert
  (forall ( (A Int) (B Int) (C Bool) (D Int) (E Int) (F Int) (G Int) (H Int) (I Int) (J Int) (K Int) (L Int) (M Int) ) 
    (=>
      (and
        (main@_80 D E F G H I J K L M)
        (and (= A D) (not C) (= C (= B 0)))
      )
      (main@_84 D E F G H I J K L M)
    )
  )
)
(assert
  (forall ( (A Int) (B Bool) (C Int) (D Int) (E Int) (F Int) (G Int) (H Int) (I Int) (J Int) (K Int) (L Int) (M Int) (N Int) (O Int) (P Int) (Q Int) (R Int) (S Int) (T Int) ) 
    (=>
      (and
        (main@_84 K L J I C G F E D A)
        (and (= M 3)
     (= H (+ 1 C))
     (= N D)
     (= O E)
     (= P F)
     (= Q G)
     (= R H)
     (= S I)
     (= T J)
     (= B true)
     (= B (= A 2)))
      )
      (main@_98 K L M N O P Q R S T)
    )
  )
)
(assert
  (forall ( (A Int) (B Int) (C Bool) (D Int) (E Int) (F Int) (G Int) (H Int) (I Int) (J Int) (K Int) (L Int) (M Int) ) 
    (=>
      (and
        (main@_87 D E F G H I J K L M)
        (and (= A D) (= C true) (= C (= B 0)))
      )
      (main@_94 D E F G H I J K L M)
    )
  )
)
(assert
  (forall ( (A Int) (B Int) (C Bool) (D Int) (E Int) (F Int) (G Int) (H Int) (I Int) (J Int) (K Int) (L Int) (M Int) ) 
    (=>
      (and
        (main@_87 D E F G H I J K L M)
        (and (= A D) (not C) (= C (= B 0)))
      )
      (main@_91 D E F G H I J K L M)
    )
  )
)
(assert
  (forall ( (A Int) (B Bool) (C Bool) (D Bool) (E Int) (F Int) (G Int) (H Int) (I Int) (J Int) (K Int) (L Int) (M Int) (N Int) (O Int) (P Int) (Q Int) (R Int) (S Int) (T Int) (U Int) ) 
    (=>
      (and
        (main@_91 L M K J I H G F E A)
        (and (= C (= I 0))
     (= B (= A 3))
     (= N 0)
     (= O E)
     (= P F)
     (= Q G)
     (= R H)
     (= S I)
     (= T J)
     (= U K)
     (= D true)
     (= D (and B C)))
      )
      (main@_98 L M N O P Q R S T U)
    )
  )
)
(assert
  (forall ( (A Int) (B Bool) (C Bool) (D Bool) (E Int) (F Int) (G Int) (H Int) (I Int) (J Int) (K Int) (L Int) (M Int) (N Int) (O Int) (P Int) (Q Int) (R Int) (S Int) (T Int) (U Int) (V Int) ) 
    (=>
      (and
        (main@_94 M N L K E A I H G F)
        (and (= B (= A 1))
     (= C (not (<= E 0)))
     (= O F)
     (= J (+ (- 1) E))
     (= P G)
     (= Q H)
     (= R I)
     (= S 0)
     (= T J)
     (= U K)
     (= V L)
     (= D true)
     (= D (and C B)))
      )
      (main@_98 M N O P Q R S T U V)
    )
  )
)
(assert
  (forall ( (A Int) (B Int) (C Int) (D Int) (E Int) (F Bool) (G Int) (H Int) (I Int) (J Int) (K Int) (L Int) (M Int) (N Int) (O Int) (P Int) (Q Int) (R Int) (S Int) (T Int) ) 
    (=>
      (and
        (main@_98 C E G H I J K L M A)
        (and (= B C)
     (= N M)
     (= O G)
     (= P L)
     (= Q K)
     (= R J)
     (= S I)
     (= T H)
     (= F true)
     (= F (= D E)))
      )
      (main@._crit_edge N O P Q R S T)
    )
  )
)
(assert
  (forall ( (A Int) (B Int) (C Bool) (D Int) (E Int) (F Int) (G Int) (H Int) (I Int) (J Int) (K Int) (L Int) (M Int) (N Int) (O Int) (P Int) (Q Int) (R Int) (S Int) (T Int) (U Int) ) 
    (=>
      (and
        (main@_98 L M K J I H G F E D)
        (and (= A L)
     (= N D)
     (= O E)
     (= P F)
     (= Q G)
     (= R H)
     (= S I)
     (= T J)
     (= U K)
     (not C)
     (= C (= B M)))
      )
      (main@.lr.ph L M N O P Q R S T U)
    )
  )
)
(assert
  (forall ( (A Bool) (B Bool) (C Bool) (D Bool) (E Bool) (F Bool) (G Bool) (H Bool) (I Int) (J Bool) (K Bool) (L Int) (M Bool) (N Bool) (O Int) (P Bool) (Q Bool) (R Int) (S Bool) (T Bool) (U Int) (V Bool) (W Bool) (X Int) (Y Bool) (Z Bool) (A1 Bool) (B1 Int) ) 
    (=>
      (and
        (main@._crit_edge B1 I X U R O L)
        (and (= B (>= I X))
     (= C (not (<= 2 R)))
     (= D (and B A))
     (= M (not (<= L (- 1))))
     (= P (not (<= O (- 1))))
     (= S (not (<= R (- 1))))
     (= T (and Q P))
     (= V (not (<= U (- 1))))
     (= W (and T S))
     (= Y (not (<= X (- 1))))
     (= Z (and W V))
     (= A1 (and Z Y))
     (= N (and J K))
     (= K (and H G))
     (= E (not (<= 2 O)))
     (= F (and D C))
     (= J (not (<= 4 I)))
     (= G (not (<= 2 L)))
     (= H (and F E))
     (= Q (and N M))
     (= A1 true)
     (= A (not (<= 2 U))))
      )
      (main@_113 B1)
    )
  )
)
(assert
  (forall ( (A Int) (B Bool) (C Bool) (D Bool) (E Bool) (F Bool) (G Bool) (H Bool) (I Bool) (J Int) (K Bool) (L Bool) (M Int) (N Bool) (O Bool) (P Int) (Q Bool) (R Bool) (S Int) (T Bool) (U Bool) (V Int) (W Bool) (X Bool) (Y Int) (Z Bool) (A1 Bool) (B1 Bool) ) 
    (=>
      (and
        (main@._crit_edge A J Y V S P M)
        (and (= X (and U T))
     (= B1 (and A1 Z))
     (= B (not (<= 2 V)))
     (= C (>= J Y))
     (= D (not (<= 2 S)))
     (= T (not (<= S (- 1))))
     (= W (not (<= V (- 1))))
     (= Z (not (<= Y (- 1))))
     (= A1 (and W X))
     (= N (not (<= M (- 1))))
     (= K (not (<= 4 J)))
     (= E (and C B))
     (= F (not (<= 2 P)))
     (= G (and E D))
     (= H (not (<= 2 M)))
     (= I (and G F))
     (= O (and K L))
     (= R (and O N))
     (= Q (not (<= P (- 1))))
     (= U (and Q R))
     (not B1)
     (= L (and I H)))
      )
      main@verifier.error
    )
  )
)
(assert
  (forall ( (A Int) (B Bool) ) 
    (=>
      (and
        (main@_113 A)
        (and (not B) (= B (not (<= A (- 1)))))
      )
      main@verifier.error
    )
  )
)
(assert
  (forall ( (CHC_COMP_UNUSED Bool) ) 
    (=>
      (and
        main@verifier.error
        true
      )
      main@verifier.error.split
    )
  )
)
(assert
  (forall ( (CHC_COMP_UNUSED Bool) ) 
    (=>
      (and
        main@verifier.error.split
        true
      )
      false
    )
  )
)

(check-sat)
(exit)
